 &projwfc
    outdir='./outdir'
    prefix='pwscf'
    lsym=.false.
    filproj = 'fatband'
 /

