 &projwfc
    outdir='./outdir'
    prefix='pwscf'
    lsym=.true.
    filproj = 'pdos'
 /

