&CONTROL
  ! you must keep verbosity='high' to output band structure!
  title = 'FeO',
  calculation = 'bands'
  restart_mode = 'from_scratch' ,
  outdir = './outdir',
  pseudo_dir = './' ,
  prefix = 'pwscf' ,
  verbosity = 'high',
  wf_collect = .true. ,
  max_seconds =  21000 ,
/
&SYSTEM
  ! keep all varialble the same as pw.scf.in
  ibrav = 0,
  celldm(1) = 1.89,
  ntyp = 2 ,
  nat = 2 ,
  ecutwfc = 33 , 
  ecutrho = 330 , 
  occupations = 'smearing' ,
  degauss = 0.02 ,
  nspin = 4,
  noncolin = .true. ,
  lspinorb = .true. ,
  starting_magnetization(1) = 0.0,
  starting_magnetization(2) = 0.0,
  lda_plus_u = .true. 
  lda_plus_u_kind = 1
  Hubbard_U(1) = 0.0
  Hubbard_U(2) = 0.0
  Hubbard_J(1,1) = 0.0
  Hubbard_J(1,2) = 0.0
/
&ELECTRONS
  electron_maxstep = 100,
  conv_thr = 1.D-5 ,
  mixing_beta = 0.7 ,
  diagonalization = 'david' ,
/
ATOMIC_SPECIES
    Fe     1.000   PSP_NAME.upf
     O     1.000   PSP_NAME.upf
CELL_PARAMETERS alat
      2.15845239   2.15845239   0.00000000
      2.15845239   0.00000000   2.15845239
      0.00000000   2.15845239   2.15845239
ATOMIC_POSITIONS crystal
  Fe    0.00000000   0.00000000   0.00000000 0 0 0
   O   -0.50000000   0.50000000   0.50000000 0 0 0
K_POINTS crystal_b
  10
  0.00000000   0.00000000   0.00000000 29 ! $\GAMMA$
  0.50000000   0.50000000   0.00000000 15 ! X 
  0.50000000   0.75000000   0.25000000 10 ! W 
  0.37500000   0.75000000   0.37500000 31 ! K 
  0.00000000   0.00000000   0.00000000 25 ! $\GAMMA$
  0.50000000   0.50000000   0.50000000 18 ! L 
  0.62500000   0.62500000   0.25000000 10 ! A 
  0.50000000   0.75000000   0.25000000 21 ! W 
  0.50000000   0.50000000   0.50000000 18 ! L 
  0.37500000   0.75000000   0.37500000  1 ! K 
