&CONTROL
  ! you must keep verbosity='high' to output band structure!
  title = 'FeO',
  calculation = 'scf',
  restart_mode = 'from_scratch' ,
  outdir = './outdir',
  pseudo_dir = './' ,
  prefix = 'pwscf' ,
  verbosity = 'high',
  wf_collect = .true. ,
  max_seconds =  21000 ,
/
&SYSTEM
  ! ecutwfc should > 30 for uspp/paw, > 40 for ncpp
  ! ecutrho should 4*ecutwfc for ncpp/paw, 10*ecutwfc for uspp
  ! If DFT+U, use eV for U and J
  ibrav = 0,
  celldm(1) = 1.89,
  ntyp = 2 ,
  nat = 2 ,
  ecutwfc = 33 , 
  ecutrho = 330 , 
  occupations = 'smearing' ,
  degauss = 0.02 ,
  nspin = 4,
  noncolin = .true. ,
  lspinorb = .true. ,
  starting_magnetization(1) = 0.0,
  starting_magnetization(2) = 0.0,
  lda_plus_u = .true. 
  lda_plus_u_kind = 1
  Hubbard_U(1) = 0.0
  Hubbard_U(2) = 0.0
  Hubbard_J(1,1) = 0.0
  Hubbard_J(1,2) = 0.0
/
&ELECTRONS
  electron_maxstep = 100,
  conv_thr = 1.D-5 ,
  mixing_beta = 0.7 ,
  diagonalization = 'david' ,
/
ATOMIC_SPECIES
    Fe     1.000   PSP_NAME.upf
     O     1.000   PSP_NAME.upf
CELL_PARAMETERS alat
      2.15845239   2.15845239   0.00000000
      2.15845239   0.00000000   2.15845239
      0.00000000   2.15845239   2.15845239
ATOMIC_POSITIONS crystal
  Fe    0.00000000   0.00000000   0.00000000 0 0 0
   O   -0.50000000   0.50000000   0.50000000 0 0 0
K_POINTS automatic
  15 15 15  1  1  1